4 
5  33 49 
6  04 19 35 45 50 55 
7  00 05 10 15 20 25 30 35 40 45 50 55 
8  00 05 10 15 20 25 30 35 40 45 50 55 
9  00 05 10 15 20 25 30 35 40 45 50 55 
10  00 06 12 20 27 35 42 50 57 
11  05 12 20 27 35 42 50 57 
12  05 12 20 27 35 42 50 57 
13  05 12 22 29 37 44 51 59 
14  07 14 22 29 37 44 51 59 
15  07 14 22 27 32 36 42 47 52 57 
16  02 06 12 17 21 27 32 36 42 47 51 57 
17  02 06 12 17 21 27 32 36 42 47 51 57 
18  02 06 12 17 22 27 32 37 42 47 52 57 
19  02 07 12 16 22 28 35 42 50 57 
20  05 12 20 26 33 41 49 56 
21  07 22 29 37 52 
22  07 22 32 47 
23  02 17 31 
0 
